NAME : 7.76758.tour
COMMENT : Length = 76758
COMMENT : Found by LKH-3 [Keld Helsgaun] Thu Jun 19 18:16:08 2025
TYPE : TOUR
DIMENSION : 100
TOUR_SECTION
1
11
31
83
67
25
41
47
92
82
2
14
80
59
33
40
13
55
68
85
12
96
89
94
35
77
38
100
63
99
91
16
62
22
44
50
9
27
95
90
43
17
24
29
20
72
65
5
73
48
79
70
87
32
76
58
21
8
84
51
78
69
60
61
10
54
26
3
98
52
4
49
64
36
15
23
30
18
75
97
28
74
88
53
45
86
19
71
57
81
7
34
6
66
56
37
42
46
39
93
-1
EOF
